webassembly/ejemplos_dzn/14/folder14_json_48.dzn
TERM = { '.', 's(5)', 's(2)', 's(4)', 'in_1', 'local_0', 'local_1', 's(6)', 's(1)', 's(0)', 's(3)', 'in_0'};
null = '.';
s = 14;
n = 9;
ndeps = 4;
max_registers_sz = 5;
NR = 2;
registers = [|'local_0', 's(6)', |'local_1', 's(1)'|];
dependencies = [|'i32.load16_s_0', 'i32.store16_11', |'i32.load_2', 'i32.store16_11', |'i32.load16_u_4', 'i32.store16_11', |'i32.load8_s_5', 'i32.store16_11'|];
GET_ENUM = { GET1, GET2, GET3, GET4, GET5, GET6, GET7};
SET_ENUM = { SET1, SET2, SET3, SET4, SET5, SET6, SET7};
TEE_ENUM = { TEE1, TEE2, TEE3, TEE4, TEE5, TEE6, TEE7};
N = 8;
OP = { 'i32.add_0', 'i32.load16_s_0', 'i32.load_2', 'i32.load16_u_4', 'i32.load8_s_5', 'i32.const_0', 'i32.store16_11', 'i32.const_1' };
in_ops = [2, 1, 1, 1, 1, 0, 2, 0 ];
out_ops = [1, 1, 1, 1, 1, 1, 0, 1 ];
in1 = ['s(1)', 'in_0', 'local_0', 's(0)', 's(2)', '.', 's(5)', '.' ];
in2 = ['in_1', '.', '.', '.', '.', '.', 's(3)', '.' ];
in3 = ['.', '.', '.', '.', '.', '.', '.', '.' ];
out1 = ['s(4)', 's(0)', 's(1)', 's(2)', 's(3)', 's(5)', '.', 's(6)' ];
out2 = ['.', '.', '.', '.', '.', '.', '.', '.' ];
out3 = ['.', '.', '.', '.', '.', '.', '.', '.' ];
comm = [true, false, false, false, false, false, false, false ];
gas = [1, 1, 1, 1, 1, 1, 1, 1 ];
sz = [1, 1, 1, 1, 1, 1, 1, 1 ];
stor = [false, false, false, false, false, false, true, false ];
lb = [ 1, 1, 1, 1, 1, 1, 1, 1 ];
ub = [ 14, 14, 14, 14, 14, 14, 14, 14 ];
startstack = [ 'in_0', 'in_1', null, null, null, null, null, null, null ];
endstack = [ 's(4)', null, null, null, null, null, null, null, null ];
