webassembly/ejemplos_results/14/folder14_json_48.txt
value = 14;
fgas = [1, 1, 1, 2, 1, 1, 1, 1, 1, 1, 1, 1, 1, 1];
fsize = [1, 1, 1, 1, 1, 1, 1, 1, 1, 1, 1, 1, 1, 1];
states = 
[|    in_0,   in_1,  '.',  '.', '.', '.', '.', '.', '.'
 |  's(5)',   in_0, in_1,  '.', '.', '.', '.', '.', '.'
 |  's(6)', 's(5)', in_0, in_1, '.', '.', '.', '.', '.'
 |  's(5)',   in_0, in_1,  '.', '.', '.', '.', '.', '.'
 |    in_0,   in_1,  '.',  '.', '.', '.', '.', '.', '.'
 |    in_0,   in_1,  '.',  '.', '.', '.', '.', '.', '.'
 |  's(0)',   in_1,  '.',  '.', '.', '.', '.', '.', '.'
 |  's(2)',   in_1,  '.',  '.', '.', '.', '.', '.', '.'
 |  's(3)',   in_1,  '.',  '.', '.', '.', '.', '.', '.'
 |  's(5)', 's(3)', in_1,  '.', '.', '.', '.', '.', '.'
 | local_0,   in_1,  '.',  '.', '.', '.', '.', '.', '.'
 |  's(1)',   in_1,  '.',  '.', '.', '.', '.', '.', '.'
 |  's(1)',   in_1,  '.',  '.', '.', '.', '.', '.', '.'
 |  's(1)',   in_1,  '.',  '.', '.', '.', '.', '.', '.'
 |  's(4)',    '.',  '.',  '.', '.', '.', '.', '.', '.'
 |];
register_states = 
[| local_0, local_1, '.', '.', '.', '.', '.'
 | local_0, local_1, '.', '.', '.', '.', '.'
 | local_0, local_1, '.', '.', '.', '.', '.'
 |  's(6)', local_1, '.', '.', '.', '.', '.'
 |  's(6)', local_1, '.', '.', '.', '.', '.'
 |  's(6)',    in_0, '.', '.', '.', '.', '.'
 |  's(6)',    in_0, '.', '.', '.', '.', '.'
 |  's(6)',    in_0, '.', '.', '.', '.', '.'
 |  's(6)',    in_0, '.', '.', '.', '.', '.'
 |  's(6)',    in_0, '.', '.', '.', '.', '.'
 |  's(6)',    in_0, '.', '.', '.', '.', '.'
 |  's(6)',    in_0, '.', '.', '.', '.', '.'
 |  's(6)',  's(1)', '.', '.', '.', '.', '.'
 |  's(6)',  's(1)', '.', '.', '.', '.', '.'
 |  's(6)',  's(1)', '.', '.', '.', '.', '.'
 |];
program = [O('i32.const_0'), O('i32.const_1'), S(SET1), POP, TEE(TEE2), O('i32.load16_s_0'), O('i32.load16_u_4'), O('i32.load8_s_5'), O('i32.const_0'), O('i32.store16_11'), O('i32.load_2'), TEE(TEE2), TEE(TEE2), O('i32.add_0')];
% time elapsed: 0.48 s
----------
value = 13;
fgas = [1, 1, 1, 2, 1, 1, 1, 1, 1, 1, 1, 1, 1, 0];
fsize = [1, 1, 1, 1, 1, 1, 1, 1, 1, 1, 1, 1, 1, 1];
states = 
[|    in_0,   in_1,  '.', '.', '.', '.', '.', '.', '.'
 |  's(6)',   in_0, in_1, '.', '.', '.', '.', '.', '.'
 |  's(6)',   in_0, in_1, '.', '.', '.', '.', '.', '.'
 |  's(6)',   in_0, in_1, '.', '.', '.', '.', '.', '.'
 |    in_0,   in_1,  '.', '.', '.', '.', '.', '.', '.'
 |  's(0)',   in_1,  '.', '.', '.', '.', '.', '.', '.'
 |  's(2)',   in_1,  '.', '.', '.', '.', '.', '.', '.'
 |  's(2)',   in_1,  '.', '.', '.', '.', '.', '.', '.'
 |  's(3)',   in_1,  '.', '.', '.', '.', '.', '.', '.'
 |  's(5)', 's(3)', in_1, '.', '.', '.', '.', '.', '.'
 | local_0,   in_1,  '.', '.', '.', '.', '.', '.', '.'
 |  's(1)',   in_1,  '.', '.', '.', '.', '.', '.', '.'
 |  's(1)',   in_1,  '.', '.', '.', '.', '.', '.', '.'
 |  's(4)',    '.',  '.', '.', '.', '.', '.', '.', '.'
 |  's(4)',    '.',  '.', '.', '.', '.', '.', '.', '.'
 |];
register_states = 
[| local_0, local_1, '.', '.', '.', '.', '.'
 | local_0, local_1, '.', '.', '.', '.', '.'
 |  's(6)', local_1, '.', '.', '.', '.', '.'
 |  's(6)',  's(6)', '.', '.', '.', '.', '.'
 |  's(6)',  's(6)', '.', '.', '.', '.', '.'
 |  's(6)',  's(6)', '.', '.', '.', '.', '.'
 |  's(6)',  's(6)', '.', '.', '.', '.', '.'
 |  's(6)',  's(2)', '.', '.', '.', '.', '.'
 |  's(6)',  's(2)', '.', '.', '.', '.', '.'
 |  's(6)',  's(2)', '.', '.', '.', '.', '.'
 |  's(6)',  's(2)', '.', '.', '.', '.', '.'
 |  's(6)',  's(2)', '.', '.', '.', '.', '.'
 |  's(6)',  's(1)', '.', '.', '.', '.', '.'
 |  's(6)',  's(1)', '.', '.', '.', '.', '.'
 |  's(6)',  's(1)', '.', '.', '.', '.', '.'
 |];
program = [O('i32.const_1'), TEE(TEE1), TEE(TEE2), POP, O('i32.load16_s_0'), O('i32.load16_u_4'), TEE(TEE2), O('i32.load8_s_5'), O('i32.const_0'), O('i32.store16_11'), O('i32.load_2'), TEE(TEE2), O('i32.add_0'), NOP];
% time elapsed: 0.51 s
----------
value = 12;
fgas = [1, 1, 1, 1, 1, 1, 1, 1, 1, 1, 1, 1, 0, 0];
fsize = [1, 1, 1, 1, 1, 1, 1, 1, 1, 1, 1, 1, 1, 1];
states = 
[|    in_0,   in_1,  '.', '.', '.', '.', '.', '.', '.'
 |  's(6)',   in_0, in_1, '.', '.', '.', '.', '.', '.'
 |    in_0,   in_1,  '.', '.', '.', '.', '.', '.', '.'
 |  's(0)',   in_1,  '.', '.', '.', '.', '.', '.', '.'
 |  's(0)',   in_1,  '.', '.', '.', '.', '.', '.', '.'
 |  's(2)',   in_1,  '.', '.', '.', '.', '.', '.', '.'
 |  's(3)',   in_1,  '.', '.', '.', '.', '.', '.', '.'
 |  's(5)', 's(3)', in_1, '.', '.', '.', '.', '.', '.'
 |  's(5)', 's(3)', in_1, '.', '.', '.', '.', '.', '.'
 | local_0,   in_1,  '.', '.', '.', '.', '.', '.', '.'
 |  's(1)',   in_1,  '.', '.', '.', '.', '.', '.', '.'
 |  's(1)',   in_1,  '.', '.', '.', '.', '.', '.', '.'
 |  's(4)',    '.',  '.', '.', '.', '.', '.', '.', '.'
 |  's(4)',    '.',  '.', '.', '.', '.', '.', '.', '.'
 |  's(4)',    '.',  '.', '.', '.', '.', '.', '.', '.'
 |];
register_states = 
[| local_0, local_1, '.', '.', '.', '.', '.'
 | local_0, local_1, '.', '.', '.', '.', '.'
 |  's(6)', local_1, '.', '.', '.', '.', '.'
 |  's(6)', local_1, '.', '.', '.', '.', '.'
 |  's(6)',  's(0)', '.', '.', '.', '.', '.'
 |  's(6)',  's(0)', '.', '.', '.', '.', '.'
 |  's(6)',  's(0)', '.', '.', '.', '.', '.'
 |  's(6)',  's(0)', '.', '.', '.', '.', '.'
 |  's(6)',  's(5)', '.', '.', '.', '.', '.'
 |  's(6)',  's(5)', '.', '.', '.', '.', '.'
 |  's(6)',  's(5)', '.', '.', '.', '.', '.'
 |  's(6)',  's(1)', '.', '.', '.', '.', '.'
 |  's(6)',  's(1)', '.', '.', '.', '.', '.'
 |  's(6)',  's(1)', '.', '.', '.', '.', '.'
 |  's(6)',  's(1)', '.', '.', '.', '.', '.'
 |];
program = [O('i32.const_1'), S(SET1), O('i32.load16_s_0'), TEE(TEE2), O('i32.load16_u_4'), O('i32.load8_s_5'), O('i32.const_0'), TEE(TEE2), O('i32.store16_11'), O('i32.load_2'), TEE(TEE2), O('i32.add_0'), NOP, NOP];
% time elapsed: 0.57 s
----------
value = 11;
fgas = [1, 1, 1, 1, 1, 1, 1, 1, 1, 1, 1, 0, 0, 0];
fsize = [1, 1, 1, 1, 1, 1, 1, 1, 1, 1, 1, 1, 1, 1];
states = 
[|    in_0,    in_1,  '.', '.', '.', '.', '.', '.', '.'
 |  's(0)',    in_1,  '.', '.', '.', '.', '.', '.', '.'
 |  's(2)',    in_1,  '.', '.', '.', '.', '.', '.', '.'
 |  's(3)',    in_1,  '.', '.', '.', '.', '.', '.', '.'
 |  's(5)',  's(3)', in_1, '.', '.', '.', '.', '.', '.'
 | local_0,    in_1,  '.', '.', '.', '.', '.', '.', '.'
 |  's(6)', local_0, in_1, '.', '.', '.', '.', '.', '.'
 | local_0,    in_1,  '.', '.', '.', '.', '.', '.', '.'
 |  's(1)',    in_1,  '.', '.', '.', '.', '.', '.', '.'
 |  's(1)',    in_1,  '.', '.', '.', '.', '.', '.', '.'
 |  's(1)',    in_1,  '.', '.', '.', '.', '.', '.', '.'
 |  's(4)',     '.',  '.', '.', '.', '.', '.', '.', '.'
 |  's(4)',     '.',  '.', '.', '.', '.', '.', '.', '.'
 |  's(4)',     '.',  '.', '.', '.', '.', '.', '.', '.'
 |  's(4)',     '.',  '.', '.', '.', '.', '.', '.', '.'
 |];
register_states = 
[| local_0, local_1, '.', '.', '.', '.', '.'
 | local_0, local_1, '.', '.', '.', '.', '.'
 | local_0, local_1, '.', '.', '.', '.', '.'
 | local_0, local_1, '.', '.', '.', '.', '.'
 | local_0, local_1, '.', '.', '.', '.', '.'
 | local_0, local_1, '.', '.', '.', '.', '.'
 | local_0, local_1, '.', '.', '.', '.', '.'
 |  's(6)', local_1, '.', '.', '.', '.', '.'
 |  's(6)', local_1, '.', '.', '.', '.', '.'
 |  's(6)',  's(1)', '.', '.', '.', '.', '.'
 |  's(6)',  's(1)', '.', '.', '.', '.', '.'
 |  's(6)',  's(1)', '.', '.', '.', '.', '.'
 |  's(6)',  's(1)', '.', '.', '.', '.', '.'
 |  's(6)',  's(1)', '.', '.', '.', '.', '.'
 |  's(6)',  's(1)', '.', '.', '.', '.', '.'
 |];
program = [O('i32.load16_s_0'), O('i32.load16_u_4'), O('i32.load8_s_5'), O('i32.const_0'), O('i32.store16_11'), O('i32.const_1'), S(SET1), O('i32.load_2'), TEE(TEE2), TEE(TEE2), O('i32.add_0'), NOP, NOP, NOP];
% time elapsed: 0.60 s
----------
value = 10;
fgas = [1, 1, 1, 1, 1, 1, 1, 1, 1, 1, 0, 0, 0, 0];
fsize = [1, 1, 1, 1, 1, 1, 1, 1, 1, 1, 1, 1, 1, 1];
states = 
[|    in_0,    in_1,  '.', '.', '.', '.', '.', '.', '.'
 |  's(0)',    in_1,  '.', '.', '.', '.', '.', '.', '.'
 |  's(2)',    in_1,  '.', '.', '.', '.', '.', '.', '.'
 |  's(3)',    in_1,  '.', '.', '.', '.', '.', '.', '.'
 |  's(5)',  's(3)', in_1, '.', '.', '.', '.', '.', '.'
 | local_0,    in_1,  '.', '.', '.', '.', '.', '.', '.'
 |  's(6)', local_0, in_1, '.', '.', '.', '.', '.', '.'
 | local_0,    in_1,  '.', '.', '.', '.', '.', '.', '.'
 |  's(1)',    in_1,  '.', '.', '.', '.', '.', '.', '.'
 |  's(1)',    in_1,  '.', '.', '.', '.', '.', '.', '.'
 |  's(4)',     '.',  '.', '.', '.', '.', '.', '.', '.'
 |  's(4)',     '.',  '.', '.', '.', '.', '.', '.', '.'
 |  's(4)',     '.',  '.', '.', '.', '.', '.', '.', '.'
 |  's(4)',     '.',  '.', '.', '.', '.', '.', '.', '.'
 |  's(4)',     '.',  '.', '.', '.', '.', '.', '.', '.'
 |];
register_states = 
[| local_0, local_1, '.', '.', '.', '.', '.'
 | local_0, local_1, '.', '.', '.', '.', '.'
 | local_0, local_1, '.', '.', '.', '.', '.'
 | local_0, local_1, '.', '.', '.', '.', '.'
 | local_0, local_1, '.', '.', '.', '.', '.'
 | local_0, local_1, '.', '.', '.', '.', '.'
 | local_0, local_1, '.', '.', '.', '.', '.'
 |  's(6)', local_1, '.', '.', '.', '.', '.'
 |  's(6)', local_1, '.', '.', '.', '.', '.'
 |  's(6)',  's(1)', '.', '.', '.', '.', '.'
 |  's(6)',  's(1)', '.', '.', '.', '.', '.'
 |  's(6)',  's(1)', '.', '.', '.', '.', '.'
 |  's(6)',  's(1)', '.', '.', '.', '.', '.'
 |  's(6)',  's(1)', '.', '.', '.', '.', '.'
 |  's(6)',  's(1)', '.', '.', '.', '.', '.'
 |];
program = [O('i32.load16_s_0'), O('i32.load16_u_4'), O('i32.load8_s_5'), O('i32.const_0'), O('i32.store16_11'), O('i32.const_1'), S(SET1), O('i32.load_2'), TEE(TEE2), O('i32.add_0'), NOP, NOP, NOP, NOP];
% time elapsed: 0.60 s
----------
==========
% time elapsed: 0.62 s
% [value > 9]
